p cnf 1094 50
585 485 0
194 94 1
426 326 0
606 506 0
348 248 0
516 416 0
521 421 0
1092 992 0
422 322 0
749 649 0
895 795 0
337 237 0
13 143 43 1
557 457 0
945 845 0
915 815 0
1055 955 0
546 446 0
352 252 0
522 422 1
109 9 1
891 791 0
1001 901 0
459 359 0
222 122 1
767 667 0
194 94 1
698 598 0
838 738 0
107 7 1
674 574 0
644 544 0
815 715 0
434 334 0
982 882 0
866 766 0
467 367 0
1094 994 0
1084 984 0
993 893 0
399 299 0
733 633 0
533 433 0
231 131 1
782 682 0
528 428 0
172 72 1
800 700 0
974 874 0
717 617 0